*SENSE:Minimize
NAME          MODEL
ROWS
 N  OBJ
 G  C0000000
 G  C0000001
 G  C0000002
 G  C0000003
 G  C0000004
 G  C0000005
 G  C0000006
 G  C0000007
 G  C0000008
 G  C0000009
 G  C0000010
 G  C0000011
 G  C0000012
 G  C0000013
 G  C0000014
COLUMNS
    X0000000  C0000000   4.180000000000e+00
    X0000000  OBJ        4.180000000000e+00
    X0000001  C0000001   1.355000000000e+02
    X0000001  OBJ        1.355000000000e+02
    X0000002  C0000002   1.172000000000e+02
    X0000002  OBJ        1.172000000000e+02
    X0000003  C0000003   8.765000000000e+01
    X0000003  OBJ        8.765000000000e+01
    X0000004  C0000004   1.065200000000e+02
    X0000004  OBJ        1.065200000000e+02
    X0000005  C0000005   1.240000000000e+02
    X0000005  OBJ        1.240000000000e+02
    X0000006  C0000006   1.289900000000e+02
    X0000006  OBJ        1.289900000000e+02
    X0000007  C0000007   1.375000000000e+02
    X0000007  OBJ        1.375000000000e+02
    X0000008  C0000008   1.056000000000e+02
    X0000008  OBJ        1.056000000000e+02
    X0000009  C0000009   1.242900000000e+02
    X0000009  OBJ        1.242900000000e+02
    X0000010  C0000010   1.132000000000e+02
    X0000010  OBJ        1.132000000000e+02
    X0000011  C0000011   8.135000000000e+01
    X0000011  OBJ        8.135000000000e+01
    X0000012  C0000012   9.318000000000e+01
    X0000012  OBJ        9.318000000000e+01
    X0000013  C0000013   1.494300000000e+02
    X0000013  OBJ        1.494300000000e+02
    X0000014  C0000014   8.600000000000e+01
    X0000014  OBJ        8.600000000000e+01
RHS
    RHS       C0000000   4.687322120588e-04
    RHS       C0000001   1.419418905967e-01
    RHS       C0000002   2.961047563686e-02
    RHS       C0000003   1.596925248853e-01
    RHS       C0000004   2.241679602349e-02
    RHS       C0000005   1.415771364007e-01
    RHS       C0000006   8.557592514938e-02
    RHS       C0000007   8.546323505712e-02
    RHS       C0000008   3.030645140864e-02
    RHS       C0000009   1.919067183564e-02
    RHS       C0000010   3.353488443344e-03
    RHS       C0000011   2.558001795058e-02
    RHS       C0000012   1.405254622587e-02
    RHS       C0000013   1.232114489657e-01
    RHS       C0000014   1.175586592086e-01
BOUNDS
ENDATA
